c preprocessed version of pr264.tsp, 263 vertices, 770 edges
p td 263 770
0 1
0 2
0 3
0 4
2 1
61 1
62 1
1 63
1 64
3 2
2 61
2 20
2 21
4 3
18 3
3 19
3 20
5 4
4 18
5 6
5 259
5 49
5 257
5 256
5 101
5 112
5 10
5 11
5 12
5 13
5 14
5 114
5 15
5 16
5 17
5 18
7 6
258 6
259 6
6 47
6 49
6 48
8 7
46 7
7 258
7 47
9 8
256 8
257 8
8 46
8 258
10 9
42 9
43 9
9 256
9 46
11 10
10 42
10 256
12 11
37 11
11 42
13 12
12 36
12 37
14 13
31 13
13 36
15 14
14 30
14 31
16 15
25 15
15 30
17 16
16 24
16 25
18 17
19 17
17 24
18 19
20 19
19 24
19 23
20 21
20 23
20 22
22 21
59 21
60 21
21 61
23 22
58 22
27 22
22 59
24 23
23 26
23 27
24 25
24 26
26 25
25 30
25 29
26 27
26 29
26 28
28 27
57 27
58 27
29 28
56 28
33 28
28 57
30 29
29 32
29 33
30 31
30 32
32 31
31 36
31 35
32 33
32 35
32 34
34 33
55 33
56 33
35 34
54 34
39 34
34 55
36 35
35 38
35 39
36 37
36 38
38 37
37 42
37 41
38 39
38 41
38 40
40 39
53 39
54 39
41 40
52 40
44 40
40 53
42 41
41 43
41 44
42 43
43 44
43 46
43 45
45 44
51 44
52 44
46 45
48 45
47 45
45 51
46 47
48 47
49 48
48 51
48 50
49 50
49 97
49 98
49 101
51 50
96 50
97 50
51 52
51 96
52 53
52 91
52 96
53 54
53 90
53 91
54 55
54 85
54 90
55 56
55 84
55 85
56 57
56 79
56 84
57 58
57 78
57 79
58 59
58 73
58 78
59 60
59 72
59 73
60 61
60 62
60 71
60 72
61 62
62 63
62 71
64 63
63 66
63 71
63 67
64 65
64 66
64 127
64 128
66 65
65 68
65 127
66 67
66 68
68 67
67 71
67 70
67 69
68 69
68 127
70 69
69 127
69 75
69 126
69 125
71 70
72 70
70 74
70 75
71 72
72 73
72 74
74 73
73 78
73 77
75 74
74 77
74 76
75 76
75 125
77 76
76 125
76 81
78 77
77 80
77 81
78 79
78 80
80 79
79 84
79 83
81 80
80 83
80 82
81 82
81 125
83 82
82 87
82 125
84 83
83 86
83 87
84 85
84 86
86 85
85 90
85 89
87 86
86 89
86 88
87 88
87 125
87 124
89 88
88 93
88 124
90 89
89 92
89 93
90 91
90 92
92 91
91 96
91 95
93 92
92 95
92 94
93 94
93 124
95 94
94 99
94 124
96 95
95 97
95 99
96 97
98 97
99 97
98 99
98 100
98 101
100 99
99 124
101 100
102 100
103 100
100 124
100 104
100 119
100 120
101 102
101 112
102 103
102 112
103 104
103 105
103 112
105 104
106 104
104 120
104 123
104 121
105 106
105 116
105 111
105 112
105 115
107 106
116 106
106 123
108 107
107 116
107 117
107 123
109 108
108 117
108 123
108 121
108 118
110 109
113 109
114 109
109 117
109 118
111 110
115 110
110 113
110 117
112 111
111 115
111 113
112 113
112 114
113 114
115 116
115 117
117 116
119 118
122 118
121 118
118 230
118 234
118 233
118 246
120 119
119 122
119 124
119 230
120 121
120 122
122 121
121 123
124 125
124 144
124 146
124 148
124 150
124 154
124 230
125 126
125 134
125 136
125 138
125 140
125 142
125 144
126 127
126 134
127 128
127 130
127 132
127 134
128 129
128 255
128 130
130 129
177 129
131 129
129 255
129 179
130 131
130 132
132 131
174 131
133 131
177 131
132 133
132 134
134 133
135 133
173 133
174 133
134 135
134 136
136 135
170 135
137 135
135 173
136 137
136 138
138 137
139 137
169 137
170 137
138 139
138 140
140 139
167 139
141 139
139 169
140 141
140 142
142 141
143 141
164 141
167 141
142 143
142 144
144 143
145 143
163 143
143 164
144 145
144 146
146 145
160 145
147 145
145 163
146 147
146 148
148 147
149 147
158 147
160 147
148 149
148 150
150 149
159 149
151 149
149 158
150 151
150 152
150 154
152 151
153 151
159 151
152 153
152 154
154 153
153 159
153 157
153 155
153 156
154 155
154 229
154 230
155 156
155 252
155 200
155 228
155 229
157 156
161 156
253 156
252 156
157 158
157 161
157 159
159 158
158 160
158 161
161 160
162 160
160 163
161 162
161 253
162 163
162 165
162 254
162 253
163 164
163 165
165 164
164 167
164 166
165 166
165 197
165 254
166 167
166 168
166 196
166 197
168 167
167 169
168 169
168 171
168 195
168 196
169 170
169 171
171 170
172 170
170 173
171 172
171 194
171 195
172 173
172 175
172 193
172 194
173 174
173 175
175 174
176 174
174 177
175 176
175 192
175 193
176 177
176 178
176 191
176 192
178 177
177 179
178 179
178 181
178 190
178 191
179 180
179 255
179 181
181 180
255 180
184 180
180 183
180 182
181 182
181 190
182 183
182 190
182 189
184 183
183 187
183 189
183 188
184 185
184 187
186 185
187 185
186 187
186 188
188 187
189 188
211 188
189 190
189 212
189 211
190 191
190 212
191 192
212 191
191 213
192 193
192 213
192 214
193 194
214 193
193 217
194 195
194 217
194 218
195 196
218 195
195 221
196 197
196 221
196 222
197 198
197 222
197 254
198 199
222 198
198 254
198 224
198 225
199 200
254 199
253 199
199 225
199 252
201 200
228 200
252 200
200 225
201 202
228 201
227 201
201 225
201 226
202 203
225 202
202 224
202 226
203 204
203 223
203 224
203 226
204 205
223 204
204 220
204 226
205 206
220 205
205 219
205 226
206 207
206 216
206 219
207 208
216 207
207 215
208 209
208 210
208 215
210 209
209 211
210 211
212 210
213 210
215 210
212 211
212 213
213 214
213 215
214 215
214 217
214 216
216 215
217 216
219 216
217 218
217 219
218 219
218 221
218 220
220 219
221 220
223 220
221 222
221 223
222 223
222 224
224 223
225 224
227 226
246 226
251 226
228 227
229 227
227 241
242 227
243 227
227 251
227 244
229 228
230 229
243 229
230 231
230 240
230 242
230 235
230 234
230 243
232 231
235 231
231 240
231 237
233 232
236 232
232 237
232 235
234 233
233 236
233 247
233 235
233 246
234 235
236 237
236 238
236 249
236 247
237 238
237 240
238 239
238 240
238 249
240 239
239 241
239 249
239 248
240 241
240 242
242 241
241 244
241 248
241 245
242 243
245 244
250 244
244 251
246 245
247 245
248 245
250 245
247 246
246 250
246 251
248 247
249 247
248 249
250 251
253 252
254 253
256 257
257 258
257 259
258 259
260 186
260 209
260 188
260 211
260 262
260 261
261 262
261 209
261 208
261 207
261 206
261 205
261 226
262 184
262 185
262 186
